c User generated cnf file
p cnf 12 65
4 9 -2 0 
-6 3 10 0 
1 -3 9 0 
10 -6 7 0 
11 5 -11 0 
8 3 -11 0 
7 10 -3 0 
-8 3 7 0 
10 6 -7 0 
2 10 -6 0 
8 -7 8 0 
1 8 -11 0 
2 -3 2 0 
2 -9 12 0 
2 -12 7 0 
4 -7 7 0 
5 3 -7 0 
3 10 -4 0 
5 7 -1 0 
1 -2 10 0 
11 -11 9 0 
2 12 -9 0 
8 8 -11 0 
9 -12 5 0 
6 -6 10 0 
7 3 -2 0 
6 3 -6 0 
-12 7 9 0 
2 -3 1 0 
5 10 -1 0 
2 -8 6 0 
6 4 -6 0 
-1 6 6 0 
-10 8 7 0 
-1 2 2 0 
9 -2 6 0 
7 10 -1 0 
2 6 -7 0 
9 -4 6 0 
8 -11 9 0 
6 -9 10 0 
3 11 -4 0 
10 -3 1 0 
-11 12 2 0 
7 -9 7 0 
1 1 -12 0 
-2 2 8 0 
3 -8 12 0 
8 -5 7 0 
2 -11 11 0 
7 11 -3 0 
-8 7 1 0 
-2 7 4 0 
6 -11 6 0 
12 -8 6 0 
4 -1 9 0 
4 -8 10 0 
3 3 -7 0 
12 9 -3 0 
1 6 -1 0 
1 7 -9 0 
11 -10 11 0 
7 1 -1 0 
5 5 -6 0 
-4 10 1 0 
